#
SYSTEM = bulk	
ISTART = 1
ICHARG = 11
PREC = high
ALGO = normal
ISPIN = 1
NELM = 100
NELMIN = 8
#IBRION = 2
EDIFF = 1E-6
EDIFFG = 1E-6
#NSW = 200
#ISIF = 0
ENCUT = 500.00 
NBANDS = 20
POTIM = 0.05
ISMEAR = 0
SIGMA = 0.1
LWAVE = F
LCHARG = F
NPAR = 1
LORBIT = 11
GGA = PE
