kpoints for bandstructure L-G-X-U K-G
 100
line
reciprocal
  0.00000  0.00000  0.00000     ! G
  0.50000  0.00000  0.50000     ! X

  0.50000  0.00000  0.50000     ! X
  0.50000  0.25000  0.75000     ! W

  0.50000  0.25000  0.75000     ! W
  0.50000  0.50000  0.50000     ! L

  0.50000  0.50000  0.50000     ! L
  0.00000  0.00000  0.00000     ! G

  0.00000  0.00000  0.00000     ! G
  0.37500  0.37500  0.75000     ! K

  0.37500  0.37500  0.75000     ! K
  0.50000  0.00000  0.50000     ! X
