Si
5.468720
0.00   0.5   0.5
 0.5  0.00   0.5
 0.5   0.5  0.00
2
Direct
 0.0   0.0  0.0
 0.250  0.250  0.250
