K-grid around a specific k point
 4394
Reciprocal
    -0.01308372    -0.01308372    -0.01308372    1.0000
    -0.01199341    -0.01199341    -0.01308372    1.0000
    -0.01090310    -0.01090310    -0.01308372    1.0000
    -0.00981279    -0.00981279    -0.01308372    1.0000
    -0.00872248    -0.00872248    -0.01308372    1.0000
    -0.00763217    -0.00763217    -0.01308372    1.0000
    -0.00654186    -0.00654186    -0.01308372    1.0000
    -0.00545155    -0.00545155    -0.01308372    1.0000
    -0.00436124    -0.00436124    -0.01308372    1.0000
    -0.00327093    -0.00327093    -0.01308372    1.0000
    -0.00218062    -0.00218062    -0.01308372    1.0000
    -0.00109031    -0.00109031    -0.01308372    1.0000
     0.00000000     0.00000000    -0.01308372    1.0000
    -0.01199341    -0.01308372    -0.01199341    1.0000
    -0.01090310    -0.01199341    -0.01199341    1.0000
    -0.00981279    -0.01090310    -0.01199341    1.0000
    -0.00872248    -0.00981279    -0.01199341    1.0000
    -0.00763217    -0.00872248    -0.01199341    1.0000
    -0.00654186    -0.00763217    -0.01199341    1.0000
    -0.00545155    -0.00654186    -0.01199341    1.0000
    -0.00436124    -0.00545155    -0.01199341    1.0000
    -0.00327093    -0.00436124    -0.01199341    1.0000
    -0.00218062    -0.00327093    -0.01199341    1.0000
    -0.00109031    -0.00218062    -0.01199341    1.0000
     0.00000000    -0.00109031    -0.01199341    1.0000
     0.00109031     0.00000000    -0.01199341    1.0000
    -0.01090310    -0.01308372    -0.01090310    1.0000
    -0.00981279    -0.01199341    -0.01090310    1.0000
    -0.00872248    -0.01090310    -0.01090310    1.0000
    -0.00763217    -0.00981279    -0.01090310    1.0000
    -0.00654186    -0.00872248    -0.01090310    1.0000
    -0.00545155    -0.00763217    -0.01090310    1.0000
    -0.00436124    -0.00654186    -0.01090310    1.0000
    -0.00327093    -0.00545155    -0.01090310    1.0000
    -0.00218062    -0.00436124    -0.01090310    1.0000
    -0.00109031    -0.00327093    -0.01090310    1.0000
     0.00000000    -0.00218062    -0.01090310    1.0000
     0.00109031    -0.00109031    -0.01090310    1.0000
     0.00218062     0.00000000    -0.01090310    1.0000
    -0.00981279    -0.01308372    -0.00981279    1.0000
    -0.00872248    -0.01199341    -0.00981279    1.0000
    -0.00763217    -0.01090310    -0.00981279    1.0000
    -0.00654186    -0.00981279    -0.00981279    1.0000
    -0.00545155    -0.00872248    -0.00981279    1.0000
    -0.00436124    -0.00763217    -0.00981279    1.0000
    -0.00327093    -0.00654186    -0.00981279    1.0000
    -0.00218062    -0.00545155    -0.00981279    1.0000
    -0.00109031    -0.00436124    -0.00981279    1.0000
     0.00000000    -0.00327093    -0.00981279    1.0000
     0.00109031    -0.00218062    -0.00981279    1.0000
     0.00218062    -0.00109031    -0.00981279    1.0000
     0.00327093     0.00000000    -0.00981279    1.0000
    -0.00872248    -0.01308372    -0.00872248    1.0000
    -0.00763217    -0.01199341    -0.00872248    1.0000
    -0.00654186    -0.01090310    -0.00872248    1.0000
    -0.00545155    -0.00981279    -0.00872248    1.0000
    -0.00436124    -0.00872248    -0.00872248    1.0000
    -0.00327093    -0.00763217    -0.00872248    1.0000
    -0.00218062    -0.00654186    -0.00872248    1.0000
    -0.00109031    -0.00545155    -0.00872248    1.0000
     0.00000000    -0.00436124    -0.00872248    1.0000
     0.00109031    -0.00327093    -0.00872248    1.0000
     0.00218062    -0.00218062    -0.00872248    1.0000
     0.00327093    -0.00109031    -0.00872248    1.0000
     0.00436124     0.00000000    -0.00872248    1.0000
    -0.00763217    -0.01308372    -0.00763217    1.0000
    -0.00654186    -0.01199341    -0.00763217    1.0000
    -0.00545155    -0.01090310    -0.00763217    1.0000
    -0.00436124    -0.00981279    -0.00763217    1.0000
    -0.00327093    -0.00872248    -0.00763217    1.0000
    -0.00218062    -0.00763217    -0.00763217    1.0000
    -0.00109031    -0.00654186    -0.00763217    1.0000
     0.00000000    -0.00545155    -0.00763217    1.0000
     0.00109031    -0.00436124    -0.00763217    1.0000
     0.00218062    -0.00327093    -0.00763217    1.0000
     0.00327093    -0.00218062    -0.00763217    1.0000
     0.00436124    -0.00109031    -0.00763217    1.0000
     0.00545155     0.00000000    -0.00763217    1.0000
    -0.00654186    -0.01308372    -0.00654186    1.0000
    -0.00545155    -0.01199341    -0.00654186    1.0000
    -0.00436124    -0.01090310    -0.00654186    1.0000
    -0.00327093    -0.00981279    -0.00654186    1.0000
    -0.00218062    -0.00872248    -0.00654186    1.0000
    -0.00109031    -0.00763217    -0.00654186    1.0000
     0.00000000    -0.00654186    -0.00654186    1.0000
     0.00109031    -0.00545155    -0.00654186    1.0000
     0.00218062    -0.00436124    -0.00654186    1.0000
     0.00327093    -0.00327093    -0.00654186    1.0000
     0.00436124    -0.00218062    -0.00654186    1.0000
     0.00545155    -0.00109031    -0.00654186    1.0000
     0.00654186     0.00000000    -0.00654186    1.0000
    -0.00545155    -0.01308372    -0.00545155    1.0000
    -0.00436124    -0.01199341    -0.00545155    1.0000
    -0.00327093    -0.01090310    -0.00545155    1.0000
    -0.00218062    -0.00981279    -0.00545155    1.0000
    -0.00109031    -0.00872248    -0.00545155    1.0000
     0.00000000    -0.00763217    -0.00545155    1.0000
     0.00109031    -0.00654186    -0.00545155    1.0000
     0.00218062    -0.00545155    -0.00545155    1.0000
     0.00327093    -0.00436124    -0.00545155    1.0000
     0.00436124    -0.00327093    -0.00545155    1.0000
     0.00545155    -0.00218062    -0.00545155    1.0000
     0.00654186    -0.00109031    -0.00545155    1.0000
     0.00763217     0.00000000    -0.00545155    1.0000
    -0.00436124    -0.01308372    -0.00436124    1.0000
    -0.00327093    -0.01199341    -0.00436124    1.0000
    -0.00218062    -0.01090310    -0.00436124    1.0000
    -0.00109031    -0.00981279    -0.00436124    1.0000
     0.00000000    -0.00872248    -0.00436124    1.0000
     0.00109031    -0.00763217    -0.00436124    1.0000
     0.00218062    -0.00654186    -0.00436124    1.0000
     0.00327093    -0.00545155    -0.00436124    1.0000
     0.00436124    -0.00436124    -0.00436124    1.0000
     0.00545155    -0.00327093    -0.00436124    1.0000
     0.00654186    -0.00218062    -0.00436124    1.0000
     0.00763217    -0.00109031    -0.00436124    1.0000
     0.00872248     0.00000000    -0.00436124    1.0000
    -0.00327093    -0.01308372    -0.00327093    1.0000
    -0.00218062    -0.01199341    -0.00327093    1.0000
    -0.00109031    -0.01090310    -0.00327093    1.0000
     0.00000000    -0.00981279    -0.00327093    1.0000
     0.00109031    -0.00872248    -0.00327093    1.0000
     0.00218062    -0.00763217    -0.00327093    1.0000
     0.00327093    -0.00654186    -0.00327093    1.0000
     0.00436124    -0.00545155    -0.00327093    1.0000
     0.00545155    -0.00436124    -0.00327093    1.0000
     0.00654186    -0.00327093    -0.00327093    1.0000
     0.00763217    -0.00218062    -0.00327093    1.0000
     0.00872248    -0.00109031    -0.00327093    1.0000
     0.00981279     0.00000000    -0.00327093    1.0000
    -0.00218062    -0.01308372    -0.00218062    1.0000
    -0.00109031    -0.01199341    -0.00218062    1.0000
     0.00000000    -0.01090310    -0.00218062    1.0000
     0.00109031    -0.00981279    -0.00218062    1.0000
     0.00218062    -0.00872248    -0.00218062    1.0000
     0.00327093    -0.00763217    -0.00218062    1.0000
     0.00436124    -0.00654186    -0.00218062    1.0000
     0.00545155    -0.00545155    -0.00218062    1.0000
     0.00654186    -0.00436124    -0.00218062    1.0000
     0.00763217    -0.00327093    -0.00218062    1.0000
     0.00872248    -0.00218062    -0.00218062    1.0000
     0.00981279    -0.00109031    -0.00218062    1.0000
     0.01090310     0.00000000    -0.00218062    1.0000
    -0.00109031    -0.01308372    -0.00109031    1.0000
     0.00000000    -0.01199341    -0.00109031    1.0000
     0.00109031    -0.01090310    -0.00109031    1.0000
     0.00218062    -0.00981279    -0.00109031    1.0000
     0.00327093    -0.00872248    -0.00109031    1.0000
     0.00436124    -0.00763217    -0.00109031    1.0000
     0.00545155    -0.00654186    -0.00109031    1.0000
     0.00654186    -0.00545155    -0.00109031    1.0000
     0.00763217    -0.00436124    -0.00109031    1.0000
     0.00872248    -0.00327093    -0.00109031    1.0000
     0.00981279    -0.00218062    -0.00109031    1.0000
     0.01090310    -0.00109031    -0.00109031    1.0000
     0.01199341     0.00000000    -0.00109031    1.0000
     0.00000000    -0.01308372     0.00000000    1.0000
     0.00109031    -0.01199341     0.00000000    1.0000
     0.00218062    -0.01090310     0.00000000    1.0000
     0.00327093    -0.00981279     0.00000000    1.0000
     0.00436124    -0.00872248     0.00000000    1.0000
     0.00545155    -0.00763217     0.00000000    1.0000
     0.00654186    -0.00654186     0.00000000    1.0000
     0.00763217    -0.00545155     0.00000000    1.0000
     0.00872248    -0.00436124     0.00000000    1.0000
     0.00981279    -0.00327093     0.00000000    1.0000
     0.01090310    -0.00218062     0.00000000    1.0000
     0.01199341    -0.00109031     0.00000000    1.0000
     0.01308372     0.00000000     0.00000000    1.0000
    -0.01308372    -0.01199341    -0.01199341    1.0000
    -0.01199341    -0.01090310    -0.01199341    1.0000
    -0.01090310    -0.00981279    -0.01199341    1.0000
    -0.00981279    -0.00872248    -0.01199341    1.0000
    -0.00872248    -0.00763217    -0.01199341    1.0000
    -0.00763217    -0.00654186    -0.01199341    1.0000
    -0.00654186    -0.00545155    -0.01199341    1.0000
    -0.00545155    -0.00436124    -0.01199341    1.0000
    -0.00436124    -0.00327093    -0.01199341    1.0000
    -0.00327093    -0.00218062    -0.01199341    1.0000
    -0.00218062    -0.00109031    -0.01199341    1.0000
    -0.00109031     0.00000000    -0.01199341    1.0000
     0.00000000     0.00109031    -0.01199341    1.0000
    -0.01199341    -0.01199341    -0.01090310    1.0000
    -0.01090310    -0.01090310    -0.01090310    1.0000
    -0.00981279    -0.00981279    -0.01090310    1.0000
    -0.00872248    -0.00872248    -0.01090310    1.0000
    -0.00763217    -0.00763217    -0.01090310    1.0000
    -0.00654186    -0.00654186    -0.01090310    1.0000
    -0.00545155    -0.00545155    -0.01090310    1.0000
    -0.00436124    -0.00436124    -0.01090310    1.0000
    -0.00327093    -0.00327093    -0.01090310    1.0000
    -0.00218062    -0.00218062    -0.01090310    1.0000
    -0.00109031    -0.00109031    -0.01090310    1.0000
     0.00000000     0.00000000    -0.01090310    1.0000
     0.00109031     0.00109031    -0.01090310    1.0000
    -0.01090310    -0.01199341    -0.00981279    1.0000
    -0.00981279    -0.01090310    -0.00981279    1.0000
    -0.00872248    -0.00981279    -0.00981279    1.0000
    -0.00763217    -0.00872248    -0.00981279    1.0000
    -0.00654186    -0.00763217    -0.00981279    1.0000
    -0.00545155    -0.00654186    -0.00981279    1.0000
    -0.00436124    -0.00545155    -0.00981279    1.0000
    -0.00327093    -0.00436124    -0.00981279    1.0000
    -0.00218062    -0.00327093    -0.00981279    1.0000
    -0.00109031    -0.00218062    -0.00981279    1.0000
     0.00000000    -0.00109031    -0.00981279    1.0000
     0.00109031     0.00000000    -0.00981279    1.0000
     0.00218062     0.00109031    -0.00981279    1.0000
    -0.00981279    -0.01199341    -0.00872248    1.0000
    -0.00872248    -0.01090310    -0.00872248    1.0000
    -0.00763217    -0.00981279    -0.00872248    1.0000
    -0.00654186    -0.00872248    -0.00872248    1.0000
    -0.00545155    -0.00763217    -0.00872248    1.0000
    -0.00436124    -0.00654186    -0.00872248    1.0000
    -0.00327093    -0.00545155    -0.00872248    1.0000
    -0.00218062    -0.00436124    -0.00872248    1.0000
    -0.00109031    -0.00327093    -0.00872248    1.0000
     0.00000000    -0.00218062    -0.00872248    1.0000
     0.00109031    -0.00109031    -0.00872248    1.0000
     0.00218062     0.00000000    -0.00872248    1.0000
     0.00327093     0.00109031    -0.00872248    1.0000
    -0.00872248    -0.01199341    -0.00763217    1.0000
    -0.00763217    -0.01090310    -0.00763217    1.0000
    -0.00654186    -0.00981279    -0.00763217    1.0000
    -0.00545155    -0.00872248    -0.00763217    1.0000
    -0.00436124    -0.00763217    -0.00763217    1.0000
    -0.00327093    -0.00654186    -0.00763217    1.0000
    -0.00218062    -0.00545155    -0.00763217    1.0000
    -0.00109031    -0.00436124    -0.00763217    1.0000
     0.00000000    -0.00327093    -0.00763217    1.0000
     0.00109031    -0.00218062    -0.00763217    1.0000
     0.00218062    -0.00109031    -0.00763217    1.0000
     0.00327093     0.00000000    -0.00763217    1.0000
     0.00436124     0.00109031    -0.00763217    1.0000
    -0.00763217    -0.01199341    -0.00654186    1.0000
    -0.00654186    -0.01090310    -0.00654186    1.0000
    -0.00545155    -0.00981279    -0.00654186    1.0000
    -0.00436124    -0.00872248    -0.00654186    1.0000
    -0.00327093    -0.00763217    -0.00654186    1.0000
    -0.00218062    -0.00654186    -0.00654186    1.0000
    -0.00109031    -0.00545155    -0.00654186    1.0000
     0.00000000    -0.00436124    -0.00654186    1.0000
     0.00109031    -0.00327093    -0.00654186    1.0000
     0.00218062    -0.00218062    -0.00654186    1.0000
     0.00327093    -0.00109031    -0.00654186    1.0000
     0.00436124     0.00000000    -0.00654186    1.0000
     0.00545155     0.00109031    -0.00654186    1.0000
    -0.00654186    -0.01199341    -0.00545155    1.0000
    -0.00545155    -0.01090310    -0.00545155    1.0000
    -0.00436124    -0.00981279    -0.00545155    1.0000
    -0.00327093    -0.00872248    -0.00545155    1.0000
    -0.00218062    -0.00763217    -0.00545155    1.0000
    -0.00109031    -0.00654186    -0.00545155    1.0000
     0.00000000    -0.00545155    -0.00545155    1.0000
     0.00109031    -0.00436124    -0.00545155    1.0000
     0.00218062    -0.00327093    -0.00545155    1.0000
     0.00327093    -0.00218062    -0.00545155    1.0000
     0.00436124    -0.00109031    -0.00545155    1.0000
     0.00545155     0.00000000    -0.00545155    1.0000
     0.00654186     0.00109031    -0.00545155    1.0000
    -0.00545155    -0.01199341    -0.00436124    1.0000
    -0.00436124    -0.01090310    -0.00436124    1.0000
    -0.00327093    -0.00981279    -0.00436124    1.0000
    -0.00218062    -0.00872248    -0.00436124    1.0000
    -0.00109031    -0.00763217    -0.00436124    1.0000
     0.00000000    -0.00654186    -0.00436124    1.0000
     0.00109031    -0.00545155    -0.00436124    1.0000
     0.00218062    -0.00436124    -0.00436124    1.0000
     0.00327093    -0.00327093    -0.00436124    1.0000
     0.00436124    -0.00218062    -0.00436124    1.0000
     0.00545155    -0.00109031    -0.00436124    1.0000
     0.00654186     0.00000000    -0.00436124    1.0000
     0.00763217     0.00109031    -0.00436124    1.0000
    -0.00436124    -0.01199341    -0.00327093    1.0000
    -0.00327093    -0.01090310    -0.00327093    1.0000
    -0.00218062    -0.00981279    -0.00327093    1.0000
    -0.00109031    -0.00872248    -0.00327093    1.0000
     0.00000000    -0.00763217    -0.00327093    1.0000
     0.00109031    -0.00654186    -0.00327093    1.0000
     0.00218062    -0.00545155    -0.00327093    1.0000
     0.00327093    -0.00436124    -0.00327093    1.0000
     0.00436124    -0.00327093    -0.00327093    1.0000
     0.00545155    -0.00218062    -0.00327093    1.0000
     0.00654186    -0.00109031    -0.00327093    1.0000
     0.00763217     0.00000000    -0.00327093    1.0000
     0.00872248     0.00109031    -0.00327093    1.0000
    -0.00327093    -0.01199341    -0.00218062    1.0000
    -0.00218062    -0.01090310    -0.00218062    1.0000
    -0.00109031    -0.00981279    -0.00218062    1.0000
     0.00000000    -0.00872248    -0.00218062    1.0000
     0.00109031    -0.00763217    -0.00218062    1.0000
     0.00218062    -0.00654186    -0.00218062    1.0000
     0.00327093    -0.00545155    -0.00218062    1.0000
     0.00436124    -0.00436124    -0.00218062    1.0000
     0.00545155    -0.00327093    -0.00218062    1.0000
     0.00654186    -0.00218062    -0.00218062    1.0000
     0.00763217    -0.00109031    -0.00218062    1.0000
     0.00872248     0.00000000    -0.00218062    1.0000
     0.00981279     0.00109031    -0.00218062    1.0000
    -0.00218062    -0.01199341    -0.00109031    1.0000
    -0.00109031    -0.01090310    -0.00109031    1.0000
     0.00000000    -0.00981279    -0.00109031    1.0000
     0.00109031    -0.00872248    -0.00109031    1.0000
     0.00218062    -0.00763217    -0.00109031    1.0000
     0.00327093    -0.00654186    -0.00109031    1.0000
     0.00436124    -0.00545155    -0.00109031    1.0000
     0.00545155    -0.00436124    -0.00109031    1.0000
     0.00654186    -0.00327093    -0.00109031    1.0000
     0.00763217    -0.00218062    -0.00109031    1.0000
     0.00872248    -0.00109031    -0.00109031    1.0000
     0.00981279     0.00000000    -0.00109031    1.0000
     0.01090310     0.00109031    -0.00109031    1.0000
    -0.00109031    -0.01199341     0.00000000    1.0000
     0.00000000    -0.01090310     0.00000000    1.0000
     0.00109031    -0.00981279     0.00000000    1.0000
     0.00218062    -0.00872248     0.00000000    1.0000
     0.00327093    -0.00763217     0.00000000    1.0000
     0.00436124    -0.00654186     0.00000000    1.0000
     0.00545155    -0.00545155     0.00000000    1.0000
     0.00654186    -0.00436124     0.00000000    1.0000
     0.00763217    -0.00327093     0.00000000    1.0000
     0.00872248    -0.00218062     0.00000000    1.0000
     0.00981279    -0.00109031     0.00000000    1.0000
     0.01090310     0.00000000     0.00000000    1.0000
     0.01199341     0.00109031     0.00000000    1.0000
     0.00000000    -0.01199341     0.00109031    1.0000
     0.00109031    -0.01090310     0.00109031    1.0000
     0.00218062    -0.00981279     0.00109031    1.0000
     0.00327093    -0.00872248     0.00109031    1.0000
     0.00436124    -0.00763217     0.00109031    1.0000
     0.00545155    -0.00654186     0.00109031    1.0000
     0.00654186    -0.00545155     0.00109031    1.0000
     0.00763217    -0.00436124     0.00109031    1.0000
     0.00872248    -0.00327093     0.00109031    1.0000
     0.00981279    -0.00218062     0.00109031    1.0000
     0.01090310    -0.00109031     0.00109031    1.0000
     0.01199341     0.00000000     0.00109031    1.0000
     0.01308372     0.00109031     0.00109031    1.0000
    -0.01308372    -0.01090310    -0.01090310    1.0000
    -0.01199341    -0.00981279    -0.01090310    1.0000
    -0.01090310    -0.00872248    -0.01090310    1.0000
    -0.00981279    -0.00763217    -0.01090310    1.0000
    -0.00872248    -0.00654186    -0.01090310    1.0000
    -0.00763217    -0.00545155    -0.01090310    1.0000
    -0.00654186    -0.00436124    -0.01090310    1.0000
    -0.00545155    -0.00327093    -0.01090310    1.0000
    -0.00436124    -0.00218062    -0.01090310    1.0000
    -0.00327093    -0.00109031    -0.01090310    1.0000
    -0.00218062     0.00000000    -0.01090310    1.0000
    -0.00109031     0.00109031    -0.01090310    1.0000
     0.00000000     0.00218062    -0.01090310    1.0000
    -0.01199341    -0.01090310    -0.00981279    1.0000
    -0.01090310    -0.00981279    -0.00981279    1.0000
    -0.00981279    -0.00872248    -0.00981279    1.0000
    -0.00872248    -0.00763217    -0.00981279    1.0000
    -0.00763217    -0.00654186    -0.00981279    1.0000
    -0.00654186    -0.00545155    -0.00981279    1.0000
    -0.00545155    -0.00436124    -0.00981279    1.0000
    -0.00436124    -0.00327093    -0.00981279    1.0000
    -0.00327093    -0.00218062    -0.00981279    1.0000
    -0.00218062    -0.00109031    -0.00981279    1.0000
    -0.00109031     0.00000000    -0.00981279    1.0000
     0.00000000     0.00109031    -0.00981279    1.0000
     0.00109031     0.00218062    -0.00981279    1.0000
    -0.01090310    -0.01090310    -0.00872248    1.0000
    -0.00981279    -0.00981279    -0.00872248    1.0000
    -0.00872248    -0.00872248    -0.00872248    1.0000
    -0.00763217    -0.00763217    -0.00872248    1.0000
    -0.00654186    -0.00654186    -0.00872248    1.0000
    -0.00545155    -0.00545155    -0.00872248    1.0000
    -0.00436124    -0.00436124    -0.00872248    1.0000
    -0.00327093    -0.00327093    -0.00872248    1.0000
    -0.00218062    -0.00218062    -0.00872248    1.0000
    -0.00109031    -0.00109031    -0.00872248    1.0000
     0.00000000     0.00000000    -0.00872248    1.0000
     0.00109031     0.00109031    -0.00872248    1.0000
     0.00218062     0.00218062    -0.00872248    1.0000
    -0.00981279    -0.01090310    -0.00763217    1.0000
    -0.00872248    -0.00981279    -0.00763217    1.0000
    -0.00763217    -0.00872248    -0.00763217    1.0000
    -0.00654186    -0.00763217    -0.00763217    1.0000
    -0.00545155    -0.00654186    -0.00763217    1.0000
    -0.00436124    -0.00545155    -0.00763217    1.0000
    -0.00327093    -0.00436124    -0.00763217    1.0000
    -0.00218062    -0.00327093    -0.00763217    1.0000
    -0.00109031    -0.00218062    -0.00763217    1.0000
     0.00000000    -0.00109031    -0.00763217    1.0000
     0.00109031     0.00000000    -0.00763217    1.0000
     0.00218062     0.00109031    -0.00763217    1.0000
     0.00327093     0.00218062    -0.00763217    1.0000
    -0.00872248    -0.01090310    -0.00654186    1.0000
    -0.00763217    -0.00981279    -0.00654186    1.0000
    -0.00654186    -0.00872248    -0.00654186    1.0000
    -0.00545155    -0.00763217    -0.00654186    1.0000
    -0.00436124    -0.00654186    -0.00654186    1.0000
    -0.00327093    -0.00545155    -0.00654186    1.0000
    -0.00218062    -0.00436124    -0.00654186    1.0000
    -0.00109031    -0.00327093    -0.00654186    1.0000
     0.00000000    -0.00218062    -0.00654186    1.0000
     0.00109031    -0.00109031    -0.00654186    1.0000
     0.00218062     0.00000000    -0.00654186    1.0000
     0.00327093     0.00109031    -0.00654186    1.0000
     0.00436124     0.00218062    -0.00654186    1.0000
    -0.00763217    -0.01090310    -0.00545155    1.0000
    -0.00654186    -0.00981279    -0.00545155    1.0000
    -0.00545155    -0.00872248    -0.00545155    1.0000
    -0.00436124    -0.00763217    -0.00545155    1.0000
    -0.00327093    -0.00654186    -0.00545155    1.0000
    -0.00218062    -0.00545155    -0.00545155    1.0000
    -0.00109031    -0.00436124    -0.00545155    1.0000
     0.00000000    -0.00327093    -0.00545155    1.0000
     0.00109031    -0.00218062    -0.00545155    1.0000
     0.00218062    -0.00109031    -0.00545155    1.0000
     0.00327093     0.00000000    -0.00545155    1.0000
     0.00436124     0.00109031    -0.00545155    1.0000
     0.00545155     0.00218062    -0.00545155    1.0000
    -0.00654186    -0.01090310    -0.00436124    1.0000
    -0.00545155    -0.00981279    -0.00436124    1.0000
    -0.00436124    -0.00872248    -0.00436124    1.0000
    -0.00327093    -0.00763217    -0.00436124    1.0000
    -0.00218062    -0.00654186    -0.00436124    1.0000
    -0.00109031    -0.00545155    -0.00436124    1.0000
     0.00000000    -0.00436124    -0.00436124    1.0000
     0.00109031    -0.00327093    -0.00436124    1.0000
     0.00218062    -0.00218062    -0.00436124    1.0000
     0.00327093    -0.00109031    -0.00436124    1.0000
     0.00436124     0.00000000    -0.00436124    1.0000
     0.00545155     0.00109031    -0.00436124    1.0000
     0.00654186     0.00218062    -0.00436124    1.0000
    -0.00545155    -0.01090310    -0.00327093    1.0000
    -0.00436124    -0.00981279    -0.00327093    1.0000
    -0.00327093    -0.00872248    -0.00327093    1.0000
    -0.00218062    -0.00763217    -0.00327093    1.0000
    -0.00109031    -0.00654186    -0.00327093    1.0000
     0.00000000    -0.00545155    -0.00327093    1.0000
     0.00109031    -0.00436124    -0.00327093    1.0000
     0.00218062    -0.00327093    -0.00327093    1.0000
     0.00327093    -0.00218062    -0.00327093    1.0000
     0.00436124    -0.00109031    -0.00327093    1.0000
     0.00545155     0.00000000    -0.00327093    1.0000
     0.00654186     0.00109031    -0.00327093    1.0000
     0.00763217     0.00218062    -0.00327093    1.0000
    -0.00436124    -0.01090310    -0.00218062    1.0000
    -0.00327093    -0.00981279    -0.00218062    1.0000
    -0.00218062    -0.00872248    -0.00218062    1.0000
    -0.00109031    -0.00763217    -0.00218062    1.0000
     0.00000000    -0.00654186    -0.00218062    1.0000
     0.00109031    -0.00545155    -0.00218062    1.0000
     0.00218062    -0.00436124    -0.00218062    1.0000
     0.00327093    -0.00327093    -0.00218062    1.0000
     0.00436124    -0.00218062    -0.00218062    1.0000
     0.00545155    -0.00109031    -0.00218062    1.0000
     0.00654186     0.00000000    -0.00218062    1.0000
     0.00763217     0.00109031    -0.00218062    1.0000
     0.00872248     0.00218062    -0.00218062    1.0000
    -0.00327093    -0.01090310    -0.00109031    1.0000
    -0.00218062    -0.00981279    -0.00109031    1.0000
    -0.00109031    -0.00872248    -0.00109031    1.0000
     0.00000000    -0.00763217    -0.00109031    1.0000
     0.00109031    -0.00654186    -0.00109031    1.0000
     0.00218062    -0.00545155    -0.00109031    1.0000
     0.00327093    -0.00436124    -0.00109031    1.0000
     0.00436124    -0.00327093    -0.00109031    1.0000
     0.00545155    -0.00218062    -0.00109031    1.0000
     0.00654186    -0.00109031    -0.00109031    1.0000
     0.00763217     0.00000000    -0.00109031    1.0000
     0.00872248     0.00109031    -0.00109031    1.0000
     0.00981279     0.00218062    -0.00109031    1.0000
    -0.00218062    -0.01090310     0.00000000    1.0000
    -0.00109031    -0.00981279     0.00000000    1.0000
     0.00000000    -0.00872248     0.00000000    1.0000
     0.00109031    -0.00763217     0.00000000    1.0000
     0.00218062    -0.00654186     0.00000000    1.0000
     0.00327093    -0.00545155     0.00000000    1.0000
     0.00436124    -0.00436124     0.00000000    1.0000
     0.00545155    -0.00327093     0.00000000    1.0000
     0.00654186    -0.00218062     0.00000000    1.0000
     0.00763217    -0.00109031     0.00000000    1.0000
     0.00872248     0.00000000     0.00000000    1.0000
     0.00981279     0.00109031     0.00000000    1.0000
     0.01090310     0.00218062     0.00000000    1.0000
    -0.00109031    -0.01090310     0.00109031    1.0000
     0.00000000    -0.00981279     0.00109031    1.0000
     0.00109031    -0.00872248     0.00109031    1.0000
     0.00218062    -0.00763217     0.00109031    1.0000
     0.00327093    -0.00654186     0.00109031    1.0000
     0.00436124    -0.00545155     0.00109031    1.0000
     0.00545155    -0.00436124     0.00109031    1.0000
     0.00654186    -0.00327093     0.00109031    1.0000
     0.00763217    -0.00218062     0.00109031    1.0000
     0.00872248    -0.00109031     0.00109031    1.0000
     0.00981279     0.00000000     0.00109031    1.0000
     0.01090310     0.00109031     0.00109031    1.0000
     0.01199341     0.00218062     0.00109031    1.0000
     0.00000000    -0.01090310     0.00218062    1.0000
     0.00109031    -0.00981279     0.00218062    1.0000
     0.00218062    -0.00872248     0.00218062    1.0000
     0.00327093    -0.00763217     0.00218062    1.0000
     0.00436124    -0.00654186     0.00218062    1.0000
     0.00545155    -0.00545155     0.00218062    1.0000
     0.00654186    -0.00436124     0.00218062    1.0000
     0.00763217    -0.00327093     0.00218062    1.0000
     0.00872248    -0.00218062     0.00218062    1.0000
     0.00981279    -0.00109031     0.00218062    1.0000
     0.01090310     0.00000000     0.00218062    1.0000
     0.01199341     0.00109031     0.00218062    1.0000
     0.01308372     0.00218062     0.00218062    1.0000
    -0.01308372    -0.00981279    -0.00981279    1.0000
    -0.01199341    -0.00872248    -0.00981279    1.0000
    -0.01090310    -0.00763217    -0.00981279    1.0000
    -0.00981279    -0.00654186    -0.00981279    1.0000
    -0.00872248    -0.00545155    -0.00981279    1.0000
    -0.00763217    -0.00436124    -0.00981279    1.0000
    -0.00654186    -0.00327093    -0.00981279    1.0000
    -0.00545155    -0.00218062    -0.00981279    1.0000
    -0.00436124    -0.00109031    -0.00981279    1.0000
    -0.00327093     0.00000000    -0.00981279    1.0000
    -0.00218062     0.00109031    -0.00981279    1.0000
    -0.00109031     0.00218062    -0.00981279    1.0000
     0.00000000     0.00327093    -0.00981279    1.0000
    -0.01199341    -0.00981279    -0.00872248    1.0000
    -0.01090310    -0.00872248    -0.00872248    1.0000
    -0.00981279    -0.00763217    -0.00872248    1.0000
    -0.00872248    -0.00654186    -0.00872248    1.0000
    -0.00763217    -0.00545155    -0.00872248    1.0000
    -0.00654186    -0.00436124    -0.00872248    1.0000
    -0.00545155    -0.00327093    -0.00872248    1.0000
    -0.00436124    -0.00218062    -0.00872248    1.0000
    -0.00327093    -0.00109031    -0.00872248    1.0000
    -0.00218062     0.00000000    -0.00872248    1.0000
    -0.00109031     0.00109031    -0.00872248    1.0000
     0.00000000     0.00218062    -0.00872248    1.0000
     0.00109031     0.00327093    -0.00872248    1.0000
    -0.01090310    -0.00981279    -0.00763217    1.0000