K-line around a specific k point
  170
Reciprocal
     0.00000000     0.00000000     0.00000000     1.000  !k point of VBM
     0.00000000    -0.00654186    -0.00654186     1.000  !100 direction
     0.00000000    -0.00654186    -0.00654186     1.000
     0.00000000    -0.00654186    -0.00654186     1.000
     0.00000000    -0.00654186    -0.00654186     1.000
     0.00000000    -0.00654186    -0.00654186     1.000
     0.00000000    -0.00654186    -0.00654186     1.000
     0.00000000    -0.00654186    -0.00654186     1.000
     0.00000000    -0.00654186    -0.00654186     1.000
     0.00000000    -0.00654186    -0.00654186     1.000
     0.00000000    -0.00654186    -0.00654186     1.000
     0.00000000    -0.00654186    -0.00654186     1.000
     0.00000000    -0.00654186    -0.00654186     1.000
     0.00000000    -0.00654186    -0.00654186     1.000  !010 direction
     0.00000000    -0.00654186    -0.00654186     1.000
     0.00000000    -0.00654186    -0.00654186     1.000
     0.00000000    -0.00654186    -0.00654186     1.000
     0.00000000    -0.00654186    -0.00654186     1.000
     0.00000000    -0.00654186    -0.00654186     1.000
     0.00000000    -0.00654186    -0.00654186     1.000
     0.00000000    -0.00654186    -0.00654186     1.000
     0.00000000    -0.00654186    -0.00654186     1.000
     0.00000000    -0.00654186    -0.00654186     1.000
     0.00000000    -0.00654186    -0.00654186     1.000
     0.00000000    -0.00654186    -0.00654186     1.000
     0.00000000    -0.00654186    -0.00654186     1.000  !001 direction
     0.00000000    -0.00654186    -0.00654186     1.000
     0.00000000    -0.00654186    -0.00654186     1.000
     0.00000000    -0.00654186    -0.00654186     1.000
     0.00000000    -0.00654186    -0.00654186     1.000
     0.00000000    -0.00654186    -0.00654186     1.000
     0.00000000    -0.00654186    -0.00654186     1.000
     0.00000000    -0.00654186    -0.00654186     1.000
     0.00000000    -0.00654186    -0.00654186     1.000
     0.00000000    -0.00654186    -0.00654186     1.000
     0.00000000    -0.00654186    -0.00654186     1.000
     0.00000000    -0.00654186    -0.00654186     1.000
     0.00000000    -0.00654186    -0.00654186     1.000  !110 direction
     0.00000000    -0.00654186    -0.00654186     1.000
     0.00000000    -0.00654186    -0.00654186     1.000
     0.00000000    -0.00654186    -0.00654186     1.000
     0.00000000    -0.00654186    -0.00654186     1.000
     0.00000000    -0.00654186    -0.00654186     1.000
     0.00000000    -0.00654186    -0.00654186     1.000
     0.00000000    -0.00654186    -0.00654186     1.000
     0.00000000    -0.00654186    -0.00654186     1.000
     0.00000000    -0.00654186    -0.00654186     1.000
     0.00000000    -0.00654186    -0.00654186     1.000
     0.00000000    -0.00654186    -0.00654186     1.000
     0.00000000    -0.00654186    -0.00654186     1.000  !101 direction
     0.00000000    -0.00654186    -0.00654186     1.000
     0.00000000    -0.00654186    -0.00654186     1.000
     0.00000000    -0.00654186    -0.00654186     1.000
     0.00000000    -0.00654186    -0.00654186     1.000
     0.00000000    -0.00654186    -0.00654186     1.000
     0.00000000    -0.00654186    -0.00654186     1.000
     0.00000000    -0.00654186    -0.00654186     1.000
     0.00000000    -0.00654186    -0.00654186     1.000
     0.00000000    -0.00654186    -0.00654186     1.000
     0.00000000    -0.00654186    -0.00654186     1.000
     0.00000000    -0.00654186    -0.00654186     1.000
     0.00000000    -0.00654186    -0.00654186     1.000  !011 direction
     0.00000000    -0.00654186    -0.00654186     1.000
     0.00000000    -0.00654186    -0.00654186     1.000
     0.00000000    -0.00654186    -0.00654186     1.000
     0.00000000    -0.00654186    -0.00654186     1.000
     0.00000000    -0.00654186    -0.00654186     1.000
     0.00000000    -0.00654186    -0.00654186     1.000
     0.00000000    -0.00654186    -0.00654186     1.000
     0.00000000    -0.00654186    -0.00654186     1.000
     0.00000000    -0.00654186    -0.00654186     1.000
     0.00000000    -0.00654186    -0.00654186     1.000
     0.00000000    -0.00654186    -0.00654186     1.000
     0.00000000    -0.00654186    -0.00654186     1.000  !111 direction
     0.00000000    -0.00654186    -0.00654186     1.000
     0.00000000    -0.00654186    -0.00654186     1.000
     0.00000000    -0.00654186    -0.00654186     1.000
     0.00000000    -0.00654186    -0.00654186     1.000
     0.00000000    -0.00654186    -0.00654186     1.000
     0.00000000    -0.00654186    -0.00654186     1.000
     0.00000000    -0.00654186    -0.00654186     1.000
     0.00000000    -0.00654186    -0.00654186     1.000
     0.00000000    -0.00654186    -0.00654186     1.000
     0.00000000    -0.00654186    -0.00654186     1.000
     0.00000000    -0.00654186    -0.00654186     1.000
     0.50000000     0.00000000     0.00000000     1.000  !k point of CBM
     0.50000000    -0.00654186    -0.00654186     1.000  !100 direction
     0.50000000    -0.00545155    -0.00545155     1.000
     0.50000000    -0.00545155    -0.00545155     1.000
     0.50000000    -0.00545155    -0.00545155     1.000
     0.50000000    -0.00545155    -0.00545155     1.000
     0.50000000    -0.00545155    -0.00545155     1.000
     0.50000000    -0.00545155    -0.00545155     1.000
     0.50000000    -0.00545155    -0.00545155     1.000
     0.50000000    -0.00545155    -0.00545155     1.000
     0.50000000    -0.00545155    -0.00545155     1.000
     0.50000000    -0.00545155    -0.00545155     1.000
     0.50000000    -0.00545155    -0.00545155     1.000
     0.50000000    -0.00654186    -0.00654186     1.000  !010 direction
     0.50000000    -0.00545155    -0.00545155     1.000
     0.50000000    -0.00545155    -0.00545155     1.000
     0.50000000    -0.00545155    -0.00545155     1.000
     0.50000000    -0.00545155    -0.00545155     1.000
     0.50000000    -0.00545155    -0.00545155     1.000
     0.50000000    -0.00545155    -0.00545155     1.000
     0.50000000    -0.00545155    -0.00545155     1.000
     0.50000000    -0.00545155    -0.00545155     1.000
     0.50000000    -0.00545155    -0.00545155     1.000
     0.50000000    -0.00545155    -0.00545155     1.000
     0.50000000    -0.00545155    -0.00545155     1.000
     0.50000000    -0.00654186    -0.00654186     1.000  !001 direction
     0.50000000    -0.00545155    -0.00545155     1.000
     0.50000000    -0.00545155    -0.00545155     1.000
     0.50000000    -0.00545155    -0.00545155     1.000
     0.50000000    -0.00545155    -0.00545155     1.000
     0.50000000    -0.00545155    -0.00545155     1.000
     0.50000000    -0.00545155    -0.00545155     1.000
     0.50000000    -0.00545155    -0.00545155     1.000
     0.50000000    -0.00545155    -0.00545155     1.000
     0.50000000    -0.00545155    -0.00545155     1.000
     0.50000000    -0.00545155    -0.00545155     1.000
     0.50000000    -0.00545155    -0.00545155     1.000
     0.50000000    -0.00654186    -0.00654186     1.000  !110 direction
     0.50000000    -0.00545155    -0.00545155     1.000
     0.50000000    -0.00545155    -0.00545155     1.000
     0.50000000    -0.00545155    -0.00545155     1.000
     0.50000000    -0.00545155    -0.00545155     1.000
     0.50000000    -0.00545155    -0.00545155     1.000
     0.50000000    -0.00545155    -0.00545155     1.000
     0.50000000    -0.00545155    -0.00545155     1.000
     0.50000000    -0.00545155    -0.00545155     1.000
     0.50000000    -0.00545155    -0.00545155     1.000
     0.50000000    -0.00545155    -0.00545155     1.000
     0.50000000    -0.00545155    -0.00545155     1.000
     0.50000000    -0.00654186    -0.00654186     1.000  !101 direction
     0.50000000    -0.00545155    -0.00545155     1.000
     0.50000000    -0.00545155    -0.00545155     1.000
     0.50000000    -0.00545155    -0.00545155     1.000
     0.50000000    -0.00545155    -0.00545155     1.000
     0.50000000    -0.00545155    -0.00545155     1.000
     0.50000000    -0.00545155    -0.00545155     1.000
     0.50000000    -0.00545155    -0.00545155     1.000
     0.50000000    -0.00545155    -0.00545155     1.000
     0.50000000    -0.00545155    -0.00545155     1.000
     0.50000000    -0.00545155    -0.00545155     1.000
     0.50000000    -0.00545155    -0.00545155     1.000
     0.50000000    -0.00654186    -0.00654186     1.000  !011 direction
     0.50000000    -0.00545155    -0.00545155     1.000
     0.50000000    -0.00545155    -0.00545155     1.000
     0.50000000    -0.00545155    -0.00545155     1.000
     0.50000000    -0.00545155    -0.00545155     1.000
     0.50000000    -0.00545155    -0.00545155     1.000
     0.50000000    -0.00545155    -0.00545155     1.000
     0.50000000    -0.00545155    -0.00545155     1.000
     0.50000000    -0.00545155    -0.00545155     1.000
     0.50000000    -0.00545155    -0.00545155     1.000
     0.50000000    -0.00545155    -0.00545155     1.000
     0.50000000    -0.00545155    -0.00545155     1.000
     0.50000000    -0.00654186    -0.00654186     1.000  !111 direction
     0.50000000    -0.00545155    -0.00545155     1.000
     0.50000000    -0.00545155    -0.00545155     1.000
     0.50000000    -0.00545155    -0.00545155     1.000
     0.50000000    -0.00545155    -0.00545155     1.000
     0.50000000    -0.00545155    -0.00545155     1.000
     0.50000000    -0.00545155    -0.00545155     1.000
     0.50000000    -0.00545155    -0.00545155     1.000
     0.50000000    -0.00545155    -0.00545155     1.000
     0.50000000    -0.00545155    -0.00545155     1.000
     0.50000000    -0.00545155    -0.00545155     1.000
     0.50000000    -0.00545155    -0.00545155     1.000
