K-grid around a specific k point
 4394
Reciprocal
    -0.04934425    -0.04934425    -0.04934425    1.0000
    -0.04523223    -0.04523223    -0.04934425    1.0000
    -0.04112020    -0.04112020    -0.04934425    1.0000
    -0.03700818    -0.03700818    -0.04934425    1.0000
    -0.03289616    -0.03289616    -0.04934425    1.0000
    -0.02878414    -0.02878414    -0.04934425    1.0000
    -0.02467212    -0.02467212    -0.04934425    1.0000
    -0.02056010    -0.02056010    -0.04934425    1.0000
    -0.01644808    -0.01644808    -0.04934425    1.0000
    -0.01233606    -0.01233606    -0.04934425    1.0000
    -0.00822404    -0.00822404    -0.04934425    1.0000
    -0.00411202    -0.00411202    -0.04934425    1.0000
     0.00000000     0.00000000    -0.04934425    1.0000
    -0.04523223    -0.04934425    -0.04523223    1.0000
    -0.04112020    -0.04523223    -0.04523223    1.0000
    -0.03700818    -0.04112020    -0.04523223    1.0000
    -0.03289616    -0.03700818    -0.04523223    1.0000
    -0.02878414    -0.03289616    -0.04523223    1.0000
    -0.02467212    -0.02878414    -0.04523223    1.0000
    -0.02056010    -0.02467212    -0.04523223    1.0000
    -0.01644808    -0.02056010    -0.04523223    1.0000
    -0.01233606    -0.01644808    -0.04523223    1.0000
    -0.00822404    -0.01233606    -0.04523223    1.0000
    -0.00411202    -0.00822404    -0.04523223    1.0000
     0.00000000    -0.00411202    -0.04523223    1.0000
     0.00411202     0.00000000    -0.04523223    1.0000
    -0.04112020    -0.04934425    -0.04112020    1.0000
    -0.03700818    -0.04523223    -0.04112020    1.0000
    -0.03289616    -0.04112020    -0.04112020    1.0000
    -0.02878414    -0.03700818    -0.04112020    1.0000
    -0.02467212    -0.03289616    -0.04112020    1.0000
    -0.02056010    -0.02878414    -0.04112020    1.0000
    -0.01644808    -0.02467212    -0.04112020    1.0000
    -0.01233606    -0.02056010    -0.04112020    1.0000
    -0.00822404    -0.01644808    -0.04112020    1.0000
    -0.00411202    -0.01233606    -0.04112020    1.0000
     0.00000000    -0.00822404    -0.04112020    1.0000
     0.00411202    -0.00411202    -0.04112020    1.0000
     0.00822404     0.00000000    -0.04112020    1.0000
    -0.03700818    -0.04934425    -0.03700818    1.0000
    -0.03289616    -0.04523223    -0.03700818    1.0000
    -0.02878414    -0.04112020    -0.03700818    1.0000
    -0.02467212    -0.03700818    -0.03700818    1.0000
    -0.02056010    -0.03289616    -0.03700818    1.0000
    -0.01644808    -0.02878414    -0.03700818    1.0000
    -0.01233606    -0.02467212    -0.03700818    1.0000
    -0.00822404    -0.02056010    -0.03700818    1.0000
    -0.00411202    -0.01644808    -0.03700818    1.0000
     0.00000000    -0.01233606    -0.03700818    1.0000
     0.00411202    -0.00822404    -0.03700818    1.0000
     0.00822404    -0.00411202    -0.03700818    1.0000
     0.01233606     0.00000000    -0.03700818    1.0000
    -0.03289616    -0.04934425    -0.03289616    1.0000
    -0.02878414    -0.04523223    -0.03289616    1.0000
    -0.02467212    -0.04112020    -0.03289616    1.0000
    -0.02056010    -0.03700818    -0.03289616    1.0000
    -0.01644808    -0.03289616    -0.03289616    1.0000
    -0.01233606    -0.02878414    -0.03289616    1.0000
    -0.00822404    -0.02467212    -0.03289616    1.0000
    -0.00411202    -0.02056010    -0.03289616    1.0000
     0.00000000    -0.01644808    -0.03289616    1.0000
     0.00411202    -0.01233606    -0.03289616    1.0000
     0.00822404    -0.00822404    -0.03289616    1.0000
     0.01233606    -0.00411202    -0.03289616    1.0000
     0.01644808     0.00000000    -0.03289616    1.0000
    -0.02878414    -0.04934425    -0.02878414    1.0000
    -0.02467212    -0.04523223    -0.02878414    1.0000
    -0.02056010    -0.04112020    -0.02878414    1.0000
    -0.01644808    -0.03700818    -0.02878414    1.0000
    -0.01233606    -0.03289616    -0.02878414    1.0000
    -0.00822404    -0.02878414    -0.02878414    1.0000
    -0.00411202    -0.02467212    -0.02878414    1.0000
     0.00000000    -0.02056010    -0.02878414    1.0000
     0.00411202    -0.01644808    -0.02878414    1.0000
     0.00822404    -0.01233606    -0.02878414    1.0000
     0.01233606    -0.00822404    -0.02878414    1.0000
     0.01644808    -0.00411202    -0.02878414    1.0000
     0.02056010     0.00000000    -0.02878414    1.0000
    -0.02467212    -0.04934425    -0.02467212    1.0000
    -0.02056010    -0.04523223    -0.02467212    1.0000
    -0.01644808    -0.04112020    -0.02467212    1.0000
    -0.01233606    -0.03700818    -0.02467212    1.0000
    -0.00822404    -0.03289616    -0.02467212    1.0000
    -0.00411202    -0.02878414    -0.02467212    1.0000
     0.00000000    -0.02467212    -0.02467212    1.0000
     0.00411202    -0.02056010    -0.02467212    1.0000
     0.00822404    -0.01644808    -0.02467212    1.0000
     0.01233606    -0.01233606    -0.02467212    1.0000
     0.01644808    -0.00822404    -0.02467212    1.0000
     0.02056010    -0.00411202    -0.02467212    1.0000
     0.02467212     0.00000000    -0.02467212    1.0000
    -0.02056010    -0.04934425    -0.02056010    1.0000
    -0.01644808    -0.04523223    -0.02056010    1.0000
    -0.01233606    -0.04112020    -0.02056010    1.0000
    -0.00822404    -0.03700818    -0.02056010    1.0000
    -0.00411202    -0.03289616    -0.02056010    1.0000
     0.00000000    -0.02878414    -0.02056010    1.0000
     0.00411202    -0.02467212    -0.02056010    1.0000
     0.00822404    -0.02056010    -0.02056010    1.0000
     0.01233606    -0.01644808    -0.02056010    1.0000
     0.01644808    -0.01233606    -0.02056010    1.0000
     0.02056010    -0.00822404    -0.02056010    1.0000
     0.02467212    -0.00411202    -0.02056010    1.0000
     0.02878414     0.00000000    -0.02056010    1.0000
    -0.01644808    -0.04934425    -0.01644808    1.0000
    -0.01233606    -0.04523223    -0.01644808    1.0000
    -0.00822404    -0.04112020    -0.01644808    1.0000
    -0.00411202    -0.03700818    -0.01644808    1.0000
     0.00000000    -0.03289616    -0.01644808    1.0000
     0.00411202    -0.02878414    -0.01644808    1.0000
     0.00822404    -0.02467212    -0.01644808    1.0000
     0.01233606    -0.02056010    -0.01644808    1.0000
     0.01644808    -0.01644808    -0.01644808    1.0000
     0.02056010    -0.01233606    -0.01644808    1.0000
     0.02467212    -0.00822404    -0.01644808    1.0000
     0.02878414    -0.00411202    -0.01644808    1.0000
     0.03289616     0.00000000    -0.01644808    1.0000
    -0.01233606    -0.04934425    -0.01233606    1.0000
    -0.00822404    -0.04523223    -0.01233606    1.0000
    -0.00411202    -0.04112020    -0.01233606    1.0000
     0.00000000    -0.03700818    -0.01233606    1.0000
     0.00411202    -0.03289616    -0.01233606    1.0000
     0.00822404    -0.02878414    -0.01233606    1.0000
     0.01233606    -0.02467212    -0.01233606    1.0000
     0.01644808    -0.02056010    -0.01233606    1.0000
     0.02056010    -0.01644808    -0.01233606    1.0000
     0.02467212    -0.01233606    -0.01233606    1.0000
     0.02878414    -0.00822404    -0.01233606    1.0000
     0.03289616    -0.00411202    -0.01233606    1.0000
     0.03700818     0.00000000    -0.01233606    1.0000
    -0.00822404    -0.04934425    -0.00822404    1.0000
    -0.00411202    -0.04523223    -0.00822404    1.0000
     0.00000000    -0.04112020    -0.00822404    1.0000
     0.00411202    -0.03700818    -0.00822404    1.0000
     0.00822404    -0.03289616    -0.00822404    1.0000
     0.01233606    -0.02878414    -0.00822404    1.0000
     0.01644808    -0.02467212    -0.00822404    1.0000
     0.02056010    -0.02056010    -0.00822404    1.0000
     0.02467212    -0.01644808    -0.00822404    1.0000
     0.02878414    -0.01233606    -0.00822404    1.0000
     0.03289616    -0.00822404    -0.00822404    1.0000
     0.03700818    -0.00411202    -0.00822404    1.0000
     0.04112020     0.00000000    -0.00822404    1.0000
    -0.00411202    -0.04934425    -0.00411202    1.0000
     0.00000000    -0.04523223    -0.00411202    1.0000
     0.00411202    -0.04112020    -0.00411202    1.0000
     0.00822404    -0.03700818    -0.00411202    1.0000
     0.01233606    -0.03289616    -0.00411202    1.0000
     0.01644808    -0.02878414    -0.00411202    1.0000
     0.02056010    -0.02467212    -0.00411202    1.0000
     0.02467212    -0.02056010    -0.00411202    1.0000
     0.02878414    -0.01644808    -0.00411202    1.0000
     0.03289616    -0.01233606    -0.00411202    1.0000
     0.03700818    -0.00822404    -0.00411202    1.0000
     0.04112020    -0.00411202    -0.00411202    1.0000
     0.04523223     0.00000000    -0.00411202    1.0000
     0.00000000    -0.04934425     0.00000000    1.0000
     0.00411202    -0.04523223     0.00000000    1.0000
     0.00822404    -0.04112020     0.00000000    1.0000
     0.01233606    -0.03700818     0.00000000    1.0000
     0.01644808    -0.03289616     0.00000000    1.0000
     0.02056010    -0.02878414     0.00000000    1.0000
     0.02467212    -0.02467212     0.00000000    1.0000
     0.02878414    -0.02056010     0.00000000    1.0000
     0.03289616    -0.01644808     0.00000000    1.0000
     0.03700818    -0.01233606     0.00000000    1.0000
     0.04112020    -0.00822404     0.00000000    1.0000
     0.04523223    -0.00411202     0.00000000    1.0000
     0.04934425     0.00000000     0.00000000    1.0000
    -0.04934425    -0.04523223    -0.04523223    1.0000
    -0.04523223    -0.04112020    -0.04523223    1.0000
    -0.04112020    -0.03700818    -0.04523223    1.0000
    -0.03700818    -0.03289616    -0.04523223    1.0000
    -0.03289616    -0.02878414    -0.04523223    1.0000
    -0.02878414    -0.02467212    -0.04523223    1.0000
    -0.02467212    -0.02056010    -0.04523223    1.0000
    -0.02056010    -0.01644808    -0.04523223    1.0000
    -0.01644808    -0.01233606    -0.04523223    1.0000
    -0.01233606    -0.00822404    -0.04523223    1.0000
    -0.00822404    -0.00411202    -0.04523223    1.0000
    -0.00411202     0.00000000    -0.04523223    1.0000
     0.00000000     0.00411202    -0.04523223    1.0000
    -0.04523223    -0.04523223    -0.04112020    1.0000
    -0.04112020    -0.04112020    -0.04112020    1.0000
    -0.03700818    -0.03700818    -0.04112020    1.0000
    -0.03289616    -0.03289616    -0.04112020    1.0000
    -0.02878414    -0.02878414    -0.04112020    1.0000
    -0.02467212    -0.02467212    -0.04112020    1.0000
    -0.02056010    -0.02056010    -0.04112020    1.0000
    -0.01644808    -0.01644808    -0.04112020    1.0000
    -0.01233606    -0.01233606    -0.04112020    1.0000
    -0.00822404    -0.00822404    -0.04112020    1.0000
    -0.00411202    -0.00411202    -0.04112020    1.0000
     0.00000000     0.00000000    -0.04112020    1.0000
     0.00411202     0.00411202    -0.04112020    1.0000
    -0.04112020    -0.04523223    -0.03700818    1.0000
    -0.03700818    -0.04112020    -0.03700818    1.0000
    -0.03289616    -0.03700818    -0.03700818    1.0000
    -0.02878414    -0.03289616    -0.03700818    1.0000
    -0.02467212    -0.02878414    -0.03700818    1.0000
    -0.02056010    -0.02467212    -0.03700818    1.0000
    -0.01644808    -0.02056010    -0.03700818    1.0000
    -0.01233606    -0.01644808    -0.03700818    1.0000
    -0.00822404    -0.01233606    -0.03700818    1.0000
    -0.00411202    -0.00822404    -0.03700818    1.0000
     0.00000000    -0.00411202    -0.03700818    1.0000
     0.00411202     0.00000000    -0.03700818    1.0000
     0.00822404     0.00411202    -0.03700818    1.0000
    -0.03700818    -0.04523223    -0.03289616    1.0000
    -0.03289616    -0.04112020    -0.03289616    1.0000
    -0.02878414    -0.03700818    -0.03289616    1.0000
    -0.02467212    -0.03289616    -0.03289616    1.0000
    -0.02056010    -0.02878414    -0.03289616    1.0000
    -0.01644808    -0.02467212    -0.03289616    1.0000
    -0.01233606    -0.02056010    -0.03289616    1.0000
    -0.00822404    -0.01644808    -0.03289616    1.0000
    -0.00411202    -0.01233606    -0.03289616    1.0000
     0.00000000    -0.00822404    -0.03289616    1.0000
     0.00411202    -0.00411202    -0.03289616    1.0000
     0.00822404     0.00000000    -0.03289616    1.0000
     0.01233606     0.00411202    -0.03289616    1.0000
    -0.03289616    -0.04523223    -0.02878414    1.0000
    -0.02878414    -0.04112020    -0.02878414    1.0000
    -0.02467212    -0.03700818    -0.02878414    1.0000
    -0.02056010    -0.03289616    -0.02878414    1.0000
    -0.01644808    -0.02878414    -0.02878414    1.0000
    -0.01233606    -0.02467212    -0.02878414    1.0000
    -0.00822404    -0.02056010    -0.02878414    1.0000
    -0.00411202    -0.01644808    -0.02878414    1.0000
     0.00000000    -0.01233606    -0.02878414    1.0000
     0.00411202    -0.00822404    -0.02878414    1.0000
     0.00822404    -0.00411202    -0.02878414    1.0000
     0.01233606     0.00000000    -0.02878414    1.0000
     0.01644808     0.00411202    -0.02878414    1.0000
    -0.02878414    -0.04523223    -0.02467212    1.0000
    -0.02467212    -0.04112020    -0.02467212    1.0000
    -0.02056010    -0.03700818    -0.02467212    1.0000
    -0.01644808    -0.03289616    -0.02467212    1.0000
    -0.01233606    -0.02878414    -0.02467212    1.0000
    -0.00822404    -0.02467212    -0.02467212    1.0000
    -0.00411202    -0.02056010    -0.02467212    1.0000
     0.00000000    -0.01644808    -0.02467212    1.0000
     0.00411202    -0.01233606    -0.02467212    1.0000
     0.00822404    -0.00822404    -0.02467212    1.0000
     0.01233606    -0.00411202    -0.02467212    1.0000
     0.01644808     0.00000000    -0.02467212    1.0000
     0.02056010     0.00411202    -0.02467212    1.0000
    -0.02467212    -0.04523223    -0.02056010    1.0000
    -0.02056010    -0.04112020    -0.02056010    1.0000
    -0.01644808    -0.03700818    -0.02056010    1.0000
    -0.01233606    -0.03289616    -0.02056010    1.0000
    -0.00822404    -0.02878414    -0.02056010    1.0000
    -0.00411202    -0.02467212    -0.02056010    1.0000
     0.00000000    -0.02056010    -0.02056010    1.0000
     0.00411202    -0.01644808    -0.02056010    1.0000
     0.00822404    -0.01233606    -0.02056010    1.0000
     0.01233606    -0.00822404    -0.02056010    1.0000
     0.01644808    -0.00411202    -0.02056010    1.0000
     0.02056010     0.00000000    -0.02056010    1.0000
     0.02467212     0.00411202    -0.02056010    1.0000
    -0.02056010    -0.04523223    -0.01644808    1.0000
    -0.01644808    -0.04112020    -0.01644808    1.0000
    -0.01233606    -0.03700818    -0.01644808    1.0000
    -0.00822404    -0.03289616    -0.01644808    1.0000
    -0.00411202    -0.02878414    -0.01644808    1.0000
     0.00000000    -0.02467212    -0.01644808    1.0000
     0.00411202    -0.02056010    -0.01644808    1.0000
     0.00822404    -0.01644808    -0.01644808    1.0000
     0.01233606    -0.01233606    -0.01644808    1.0000
     0.01644808    -0.00822404    -0.01644808    1.0000
     0.02056010    -0.00411202    -0.01644808    1.0000
     0.02467212     0.00000000    -0.01644808    1.0000
     0.02878414     0.00411202    -0.01644808    1.0000
    -0.01644808    -0.04523223    -0.01233606    1.0000
    -0.01233606    -0.04112020    -0.01233606    1.0000
    -0.00822404    -0.03700818    -0.01233606    1.0000
    -0.00411202    -0.03289616    -0.01233606    1.0000
     0.00000000    -0.02878414    -0.01233606    1.0000
     0.00411202    -0.02467212    -0.01233606    1.0000
     0.00822404    -0.02056010    -0.01233606    1.0000
     0.01233606    -0.01644808    -0.01233606    1.0000
     0.01644808    -0.01233606    -0.01233606    1.0000
     0.02056010    -0.00822404    -0.01233606    1.0000
     0.02467212    -0.00411202    -0.01233606    1.0000
     0.02878414     0.00000000    -0.01233606    1.0000
     0.03289616     0.00411202    -0.01233606    1.0000
    -0.01233606    -0.04523223    -0.00822404    1.0000
    -0.00822404    -0.04112020    -0.00822404    1.0000
    -0.00411202    -0.03700818    -0.00822404    1.0000
     0.00000000    -0.03289616    -0.00822404    1.0000
     0.00411202    -0.02878414    -0.00822404    1.0000
     0.00822404    -0.02467212    -0.00822404    1.0000
     0.01233606    -0.02056010    -0.00822404    1.0000
     0.01644808    -0.01644808    -0.00822404    1.0000
     0.02056010    -0.01233606    -0.00822404    1.0000
     0.02467212    -0.00822404    -0.00822404    1.0000
     0.02878414    -0.00411202    -0.00822404    1.0000
     0.03289616     0.00000000    -0.00822404    1.0000
     0.03700818     0.00411202    -0.00822404    1.0000
    -0.00822404    -0.04523223    -0.00411202    1.0000
    -0.00411202    -0.04112020    -0.00411202    1.0000
     0.00000000    -0.03700818    -0.00411202    1.0000
     0.00411202    -0.03289616    -0.00411202    1.0000
     0.00822404    -0.02878414    -0.00411202    1.0000
     0.01233606    -0.02467212    -0.00411202    1.0000
     0.01644808    -0.02056010    -0.00411202    1.0000
     0.02056010    -0.01644808    -0.00411202    1.0000
     0.02467212    -0.01233606    -0.00411202    1.0000
     0.02878414    -0.00822404    -0.00411202    1.0000
     0.03289616    -0.00411202    -0.00411202    1.0000
     0.03700818     0.00000000    -0.00411202    1.0000
     0.04112020     0.00411202    -0.00411202    1.0000
    -0.00411202    -0.04523223     0.00000000    1.0000
     0.00000000    -0.04112020     0.00000000    1.0000
     0.00411202    -0.03700818     0.00000000    1.0000
     0.00822404    -0.03289616     0.00000000    1.0000
     0.01233606    -0.02878414     0.00000000    1.0000
     0.01644808    -0.02467212     0.00000000    1.0000
     0.02056010    -0.02056010     0.00000000    1.0000
     0.02467212    -0.01644808     0.00000000    1.0000
     0.02878414    -0.01233606     0.00000000    1.0000
     0.03289616    -0.00822404     0.00000000    1.0000
     0.03700818    -0.00411202     0.00000000    1.0000
     0.04112020     0.00000000     0.00000000    1.0000
     0.04523223     0.00411202     0.00000000    1.0000
     0.00000000    -0.04523223     0.00411202    1.0000
     0.00411202    -0.04112020     0.00411202    1.0000
     0.00822404    -0.03700818     0.00411202    1.0000
     0.01233606    -0.03289616     0.00411202    1.0000
     0.01644808    -0.02878414     0.00411202    1.0000
     0.02056010    -0.02467212     0.00411202    1.0000
     0.02467212    -0.02056010     0.00411202    1.0000
     0.02878414    -0.01644808     0.00411202    1.0000
     0.03289616    -0.01233606     0.00411202    1.0000
     0.03700818    -0.00822404     0.00411202    1.0000
     0.04112020    -0.00411202     0.00411202    1.0000
     0.04523223     0.00000000     0.00411202    1.0000
     0.04934425     0.00411202     0.00411202    1.0000
    -0.04934425    -0.04112020    -0.04112020    1.0000
    -0.04523223    -0.03700818    -0.04112020    1.0000
    -0.04112020    -0.03289616    -0.04112020    1.0000
    -0.03700818    -0.02878414    -0.04112020    1.0000
    -0.03289616    -0.02467212    -0.04112020    1.0000
    -0.02878414    -0.02056010    -0.04112020    1.0000
    -0.02467212    -0.01644808    -0.04112020    1.0000
    -0.02056010    -0.01233606    -0.04112020    1.0000
    -0.01644808    -0.00822404    -0.04112020    1.0000
    -0.01233606    -0.00411202    -0.04112020    1.0000
    -0.00822404     0.00000000    -0.04112020    1.0000
    -0.00411202     0.00411202    -0.04112020    1.0000
     0.00000000     0.00822404    -0.04112020    1.0000
    -0.04523223    -0.04112020    -0.03700818    1.0000
    -0.04112020    -0.03700818    -0.03700818    1.0000
    -0.03700818    -0.03289616    -0.03700818    1.0000
    -0.03289616    -0.02878414    -0.03700818    1.0000
    -0.02878414    -0.02467212    -0.03700818    1.0000
    -0.02467212    -0.02056010    -0.03700818    1.0000
    -0.02056010    -0.01644808    -0.03700818    1.0000
    -0.01644808    -0.01233606    -0.03700818    1.0000
    -0.01233606    -0.00822404    -0.03700818    1.0000
    -0.00822404    -0.00411202    -0.03700818    1.0000
    -0.00411202     0.00000000    -0.03700818    1.0000
     0.00000000     0.00411202    -0.03700818    1.0000
     0.00411202     0.00822404    -0.03700818    1.0000
    -0.04112020    -0.04112020    -0.03289616    1.0000
    -0.03700818    -0.03700818    -0.03289616    1.0000
    -0.03289616    -0.03289616    -0.03289616    1.0000
    -0.02878414    -0.02878414    -0.03289616    1.0000
    -0.02467212    -0.02467212    -0.03289616    1.0000
    -0.02056010    -0.02056010    -0.03289616    1.0000
    -0.01644808    -0.01644808    -0.03289616    1.0000
    -0.01233606    -0.01233606    -0.03289616    1.0000
    -0.00822404    -0.00822404    -0.03289616    1.0000
    -0.00411202    -0.00411202    -0.03289616    1.0000
     0.00000000     0.00000000    -0.03289616    1.0000
     0.00411202     0.00411202    -0.03289616    1.0000
     0.00822404     0.00822404    -0.03289616    1.0000
    -0.03700818    -0.04112020    -0.02878414    1.0000
    -0.03289616    -0.03700818    -0.02878414    1.0000
    -0.02878414    -0.03289616    -0.02878414    1.0000
    -0.02467212    -0.02878414    -0.02878414    1.0000
    -0.02056010    -0.02467212    -0.02878414    1.0000
    -0.01644808    -0.02056010    -0.02878414    1.0000
    -0.01233606    -0.01644808    -0.02878414    1.0000
    -0.00822404    -0.01233606    -0.02878414    1.0000
    -0.00411202    -0.00822404    -0.02878414    1.0000
     0.00000000    -0.00411202    -0.02878414    1.0000
     0.00411202     0.00000000    -0.02878414    1.0000
     0.00822404     0.00411202    -0.02878414    1.0000
     0.01233606     0.00822404    -0.02878414    1.0000
    -0.03289616    -0.04112020    -0.02467212    1.0000
    -0.02878414    -0.03700818    -0.02467212    1.0000
    -0.02467212    -0.03289616    -0.02467212    1.0000
    -0.02056010    -0.02878414    -0.02467212    1.0000
    -0.01644808    -0.02467212    -0.02467212    1.0000
    -0.01233606    -0.02056010    -0.02467212    1.0000
    -0.00822404    -0.01644808    -0.02467212    1.0000
    -0.00411202    -0.01233606    -0.02467212    1.0000
     0.00000000    -0.00822404    -0.02467212    1.0000
     0.00411202    -0.00411202    -0.02467212    1.0000
     0.00822404     0.00000000    -0.02467212    1.0000
     0.01233606     0.00411202    -0.02467212    1.0000
     0.01644808     0.00822404    -0.02467212    1.0000
    -0.02878414    -0.04112020    -0.02056010    1.0000
    -0.02467212    -0.03700818    -0.02056010    1.0000
    -0.02056010    -0.03289616    -0.02056010    1.0000
    -0.01644808    -0.02878414    -0.02056010    1.0000
    -0.01233606    -0.02467212    -0.02056010    1.0000
    -0.00822404    -0.02056010    -0.02056010    1.0000
    -0.00411202    -0.01644808    -0.02056010    1.0000
     0.00000000    -0.01233606    -0.02056010    1.0000
     0.00411202    -0.00822404    -0.02056010    1.0000
     0.00822404    -0.00411202    -0.02056010    1.0000
     0.01233606     0.00000000    -0.02056010    1.0000
     0.01644808     0.00411202    -0.02056010    1.0000
     0.02056010     0.00822404    -0.02056010    1.0000
    -0.02467212    -0.04112020    -0.01644808    1.0000
    -0.02056010    -0.03700818    -0.01644808    1.0000
    -0.01644808    -0.03289616    -0.01644808    1.0000
    -0.01233606    -0.02878414    -0.01644808    1.0000
    -0.00822404    -0.02467212    -0.01644808    1.0000
    -0.00411202    -0.02056010    -0.01644808    1.0000
     0.00000000    -0.01644808    -0.01644808    1.0000
     0.00411202    -0.01233606    -0.01644808    1.0000
     0.00822404    -0.00822404    -0.01644808    1.0000
     0.01233606    -0.00411202    -0.01644808    1.0000
     0.01644808     0.00000000    -0.01644808    1.0000
     0.02056010     0.00411202    -0.01644808    1.0000
     0.02467212     0.00822404    -0.01644808    1.0000
    -0.02056010    -0.04112020    -0.01233606    1.0000
    -0.01644808    -0.03700818    -0.01233606    1.0000
    -0.01233606    -0.03289616    -0.01233606    1.0000
    -0.00822404    -0.02878414    -0.01233606    1.0000
    -0.00411202    -0.02467212    -0.01233606    1.0000
     0.00000000    -0.02056010    -0.01233606    1.0000
     0.00411202    -0.01644808    -0.01233606    1.0000
     0.00822404    -0.01233606    -0.01233606    1.0000
     0.01233606    -0.00822404    -0.01233606    1.0000
     0.01644808    -0.00411202    -0.01233606    1.0000
     0.02056010     0.00000000    -0.01233606    1.0000
     0.02467212     0.00411202    -0.01233606    1.0000
     0.02878414     0.00822404    -0.01233606    1.0000
    -0.01644808    -0.04112020    -0.00822404    1.0000
    -0.01233606    -0.03700818    -0.00822404    1.0000
    -0.00822404    -0.03289616    -0.00822404    1.0000
    -0.00411202    -0.02878414    -0.00822404    1.0000
     0.00000000    -0.02467212    -0.00822404    1.0000
     0.00411202    -0.02056010    -0.00822404    1.0000
     0.00822404    -0.01644808    -0.00822404    1.0000
     0.01233606    -0.01233606    -0.00822404    1.0000
     0.01644808    -0.00822404    -0.00822404    1.0000
     0.02056010    -0.00411202    -0.00822404    1.0000
     0.02467212     0.00000000    -0.00822404    1.0000
     0.02878414     0.00411202    -0.00822404    1.0000
     0.03289616     0.00822404    -0.00822404    1.0000
    -0.01233606    -0.04112020    -0.00411202    1.0000
    -0.00822404    -0.03700818    -0.00411202    1.0000
    -0.00411202    -0.03289616    -0.00411202    1.0000
     0.00000000    -0.02878414    -0.00411202    1.0000
     0.00411202    -0.02467212    -0.00411202    1.0000
     0.00822404    -0.02056010    -0.00411202    1.0000
     0.01233606    -0.01644808    -0.00411202    1.0000
     0.01644808    -0.01233606    -0.00411202    1.0000
     0.02056010    -0.00822404    -0.00411202    1.0000
     0.02467212    -0.00411202    -0.00411202    1.0000
     0.02878414     0.00000000    -0.00411202    1.0000
     0.03289616     0.00411202    -0.00411202    1.0000
     0.03700818     0.00822404    -0.00411202    1.0000
    -0.00822404    -0.04112020     0.00000000    1.0000
    -0.00411202    -0.03700818     0.00000000    1.0000
     0.00000000    -0.03289616     0.00000000    1.0000
     0.00411202    -0.02878414     0.00000000    1.0000
     0.00822404    -0.02467212     0.00000000    1.0000
     0.01233606    -0.02056010     0.00000000    1.0000
     0.01644808    -0.01644808     0.00000000    1.0000
     0.02056010    -0.01233606     0.00000000    1.0000
     0.02467212    -0.00822404     0.00000000    1.0000
     0.02878414    -0.00411202     0.00000000    1.0000
     0.03289616     0.00000000     0.00000000    1.0000
     0.03700818     0.00411202     0.00000000    1.0000
     0.04112020     0.00822404     0.00000000    1.0000
    -0.00411202    -0.04112020     0.00411202    1.0000
     0.00000000    -0.03700818     0.00411202    1.0000
     0.00411202    -0.03289616     0.00411202    1.0000
     0.00822404    -0.02878414     0.00411202    1.0000
     0.01233606    -0.02467212     0.00411202    1.0000
     0.01644808    -0.02056010     0.00411202    1.0000
     0.02056010    -0.01644808     0.00411202    1.0000
     0.02467212    -0.01233606     0.00411202    1.0000
     0.02878414    -0.00822404     0.00411202    1.0000
     0.03289616    -0.00411202     0.00411202    1.0000
     0.03700818     0.00000000     0.00411202    1.0000
     0.04112020     0.00411202     0.00411202    1.0000
     0.04523223     0.00822404     0.00411202    1.0000
     0.00000000    -0.04112020     0.00822404    1.0000
     0.00411202    -0.03700818     0.00822404    1.0000
     0.00822404    -0.03289616     0.00822404    1.0000
     0.01233606    -0.02878414     0.00822404    1.0000
     0.01644808    -0.02467212     0.00822404    1.0000
     0.02056010    -0.02056010     0.00822404    1.0000
     0.02467212    -0.01644808     0.00822404    1.0000
     0.02878414    -0.01233606     0.00822404    1.0000
     0.03289616    -0.00822404     0.00822404    1.0000
     0.03700818    -0.00411202     0.00822404    1.0000
     0.04112020     0.00000000     0.00822404    1.0000
     0.04523223     0.00411202     0.00822404    1.0000
     0.04934425     0.00822404     0.00822404    1.0000
    -0.04934425    -0.03700818    -0.03700818    1.0000
    -0.04523223    -0.03289616    -0.03700818    1.0000
    -0.04112020    -0.02878414    -0.03700818    1.0000
    -0.03700818    -0.02467212    -0.03700818    1.0000
    -0.03289616    -0.02056010    -0.03700818    1.0000
    -0.02878414    -0.01644808    -0.03700818    1.0000
    -0.02467212    -0.01233606    -0.03700818    1.0000
    -0.02056010    -0.00822404    -0.03700818    1.0000
    -0.01644808    -0.00411202    -0.03700818    1.0000
    -0.01233606     0.00000000    -0.03700818    1.0000
    -0.00822404     0.00411202    -0.03700818    1.0000
    -0.00411202     0.00822404    -0.03700818    1.0000
     0.00000000     0.01233606    -0.03700818    1.0000
    -0.04523223    -0.03700818    -0.03289616    1.0000
    -0.04112020    -0.03289616    -0.03289616    1.0000
    -0.03700818    -0.02878414    -0.03289616    1.0000
    -0.03289616    -0.02467212    -0.03289616    1.0000
    -0.02878414    -0.02056010    -0.03289616    1.0000
    -0.02467212    -0.01644808    -0.03289616    1.0000
    -0.02056010    -0.01233606    -0.03289616    1.0000
    -0.01644808    -0.00822404    -0.03289616    1.0000
    -0.01233606    -0.00411202    -0.03289616    1.0000
    -0.00822404     0.00000000    -0.03289616    1.0000
    -0.00411202     0.00411202    -0.03289616    1.0000
     0.00000000     0.00822404    -0.03289616    1.0000
     0.00411202     0.01233606    -0.03289616    1.0000
    -0.04112020    -0.03700818    -0.02878414    1.0000