Si
5.46885312
0.00   0.5   0.5
 0.5  0.00   0.5
 0.5   0.5  0.00
2
Direct
0.12500000    0.12500000   0.12500000
0.87500000    0.87500000   0.87500000
